[2026-03-24T16:32:10.643Z] Pipeline "set_vm-3-t2_vm-3-t2_s001_g001" → 2026_03_24_16_32_10_set_vm-3-t2_vm-3-t2_s001_g001_max.sol
Set parameter Username
Set parameter LicenseID to value 2796068
Set parameter LogFile to value "gurobi.log"
Using license file /opt/gurobi/gurobi.lic
Academic license - for non-commercial use only - expires 2027-03-23

Gurobi Optimizer version 13.0.1 build v13.0.1rc0 (linux64 - "Ubuntu 24.04.4 LTS")
Copyright (c) 2026, Gurobi Optimization, LLC

Warning: Duplicate section found (read 'binary') - Is a variable name equal to an LP file format keyword?
Warning: Duplicate section found (read 'binary') - Is a variable name equal to an LP file format keyword?
Warning: Duplicate section found (read 'binary') - Is a variable name equal to an LP file format keyword?
Warning: Duplicate section found (read 'binary') - Is a variable name equal to an LP file format keyword?
Warning: Duplicate section found (read 'binary') - Is a variable name equal to an LP file format keyword?
Warning: Duplicate section found (read 'binary') - Is a variable name equal to an LP file format keyword?
Warning: Duplicate section found (read 'binary') - Is a variable name equal to an LP file format keyword?
Warning: Duplicate section found (read 'binary') - Is a variable name equal to an LP file format keyword?
Warning: Duplicate section found (read 'binary') - Is a variable name equal to an LP file format keyword?
Warning: Duplicate section found (read 'binary') - Is a variable name equal to an LP file format keyword?
Warning: Further warnings of this type will be omitted.
Read LP format model from file /root/bgw/data/uploads/2026_03_24_16_32_10_set_vm-3-t2_vm-3-t2_s001_g001_max.lp
Reading time = 0.00 seconds
: 566 rows, 111 columns, 1617 nonzeros

Using Gurobi shared library /opt/gurobi1301/linux64/lib/libgurobi.so.13.0.1

CPU model: AMD EPYC-Genoa Processor, instruction set [SSE2|AVX|AVX2|AVX512]
Thread count: 16 physical cores, 16 logical processors, using up to 16 threads

Optimize a model with 566 rows, 111 columns and 1617 nonzeros (Max)
Model fingerprint: 0x8c9c579c
Model has 17 linear objective coefficients
Variable types: 28 continuous, 83 integer (83 binary)
Coefficient statistics:
  Matrix range     [1e+00, 1e+01]
  Objective range  [1e+00, 1e+00]
  Bounds range     [1e+00, 1e+00]
  RHS range        [1e+00, 1e+01]

Found heuristic solution: objective 17.0000000
Presolve removed 206 rows and 38 columns
Presolve time: 0.00s
Presolved: 360 rows, 73 columns, 1128 nonzeros
Variable types: 0 continuous, 73 integer (67 binary)
Found heuristic solution: objective 25.0000000

Root relaxation: objective 9.000000e+01, 67 iterations, 0.00 seconds (0.00 work units)

    Nodes    |    Current Node    |     Objective Bounds      |     Work
 Expl Unexpl |  Obj  Depth IntInf | Incumbent    BestBd   Gap | It/Node Time

     0     0   90.00000    0   17   25.00000   90.00000   260%     -    0s
H    0     0                      39.0000000   90.00000   131%     -    0s
H    0     0                      46.0000000   90.00000  95.7%     -    0s
     0     0   90.00000    0   18   46.00000   90.00000  95.7%     -    0s
H    0     0                      47.0000000   90.00000  91.5%     -    0s
     0     0   90.00000    0   20   47.00000   90.00000  91.5%     -    0s
     0     0   90.00000    0   14   47.00000   90.00000  91.5%     -    0s
     0     0   90.00000    0   19   47.00000   90.00000  91.5%     -    0s
     0     0   90.00000    0   18   47.00000   90.00000  91.5%     -    0s
     0     0   83.00000    0   20   47.00000   83.00000  76.6%     -    0s
     0     0   83.00000    0   18   47.00000   83.00000  76.6%     -    0s
     0     0   83.00000    0   16   47.00000   83.00000  76.6%     -    0s
     0     0   83.00000    0   14   47.00000   83.00000  76.6%     -    0s
     0     0   83.00000    0   19   47.00000   83.00000  76.6%     -    0s
     0     0   83.00000    0   19   47.00000   83.00000  76.6%     -    0s
     0     0   82.77778    0   20   47.00000   82.77778  76.1%     -    0s
     0     0   82.77778    0   14   47.00000   82.77778  76.1%     -    0s
     0     0   82.77778    0   14   47.00000   82.77778  76.1%     -    0s
     0     0   82.77778    0   14   47.00000   82.77778  76.1%     -    0s
     0     2   82.77778    0   14   47.00000   82.77778  76.1%     -    0s

Cutting planes:
  Cover: 16
  MIR: 1
  Inf proof: 24

Explored 2662 nodes (35028 simplex iterations) in 0.23 seconds (0.16 work units)
Thread count was 16 (of 16 available processors)

Solution count 5: 47 46 39 ... 17

Optimal solution found (tolerance 1.00e-04)
Best objective 4.700000000000e+01, best bound 4.700000000000e+01, gap 0.0000%

Wrote result file '/root/bgw/data/results/2026_03_24_16_32_10_set_vm-3-t2_vm-3-t2_s001_g001_max.sol'

